Gurobi Optimizer version 9.1.0 build v9.1.0rc0 (linux64)
Thread count: 8 physical cores, 16 logical processors, using up to 16 threads
Optimize a model with 64036 rows, 60480 columns and 346170 nonzeros
Model fingerprint: 0xe2043730
Variable types: 0 continuous, 60480 integer (60480 binary)
Coefficient statistics:
  Matrix range     [1e+00, 1e+00]
  Objective range  [1e+01, 3e+04]
  Bounds range     [1e+00, 1e+00]
  RHS range        [1e+00, 2e+02]
Presolve added 0 rows and 1470 columns
Presolve removed 30 rows and 0 columns
Presolve time: 1.31s
Presolved: 64006 rows, 61950 columns, 260610 nonzeros
Variable types: 0 continuous, 61950 integer (61950 binary)
Found heuristic solution: objective 405679.00000

Concurrent LP optimizer: primal simplex, dual simplex, and barrier
Showing barrier log only...

Root barrier log...

Ordering time: 0.22s

Barrier statistics:
 Dense cols : 240
 AA' NZ     : 2.036e+05
 Factor NZ  : 7.761e+05 (roughly 60 MBytes of memory)
 Factor Ops : 1.196e+08 (less than 1 second per iteration)
 Threads    : 6

                  Objective                Residual
Iter       Primal          Dual         Primal    Dual     Compl     Time
   0   5.30583256e+07 -6.52156207e+07  2.17e+02 3.20e+01  9.54e+03     2s
   1   7.15058806e+05 -8.09328453e+07  1.31e+00 2.06e+02  5.01e+02     2s
   2   4.83035530e+05 -4.40820496e+07  3.10e-01 1.10e+02  2.54e+02     2s
   3   4.49013890e+05 -2.22923460e+07  1.56e-01 1.34e+02  1.28e+02     3s
   4   4.15436619e+05 -3.20223911e+06  7.97e-03 2.11e+01  2.00e+01     3s
   5   4.05755002e+05 -2.48714591e+05  3.69e-03 1.69e+01  3.60e+00     3s
   6   3.90099387e+05  1.29827258e+05  2.02e-03 5.56e+00  1.42e+00     3s
   7   3.83904846e+05  2.16309799e+05  1.66e-03 2.72e+00  9.15e-01     3s
   8   3.78088423e+05  2.84342737e+05  1.33e-03 1.55e+00  5.10e-01     3s
   9   3.74110563e+05  2.96031296e+05  1.15e-03 1.24e+00  4.25e-01     3s
  10   3.72645093e+05  3.11853580e+05  1.09e-03 8.27e-01  3.30e-01     3s
  11   3.66017827e+05  3.23469173e+05  8.10e-04 5.27e-01  2.31e-01     3s
  12   3.61696112e+05  3.32741226e+05  6.41e-04 2.81e-01  1.57e-01     4s
  13   3.57299847e+05  3.35717929e+05  4.77e-04 2.03e-01  1.17e-01     4s
  14   3.54753478e+05  3.37968421e+05  3.84e-04 1.46e-01  9.07e-02     4s
  15   3.51699059e+05  3.39148663e+05  2.73e-04 1.17e-01  6.78e-02     4s
  16   3.51596656e+05  3.39746347e+05  2.70e-04 1.03e-01  6.40e-02     4s
  17   3.49834024e+05  3.40812660e+05  2.04e-04 7.78e-02  4.87e-02     4s
  18   3.48515114e+05  3.41463475e+05  1.56e-04 6.31e-02  3.81e-02     4s
  19   3.48039145e+05  3.42043073e+05  1.38e-04 4.91e-02  3.24e-02     4s
  20   3.47367327e+05  3.42422745e+05  1.14e-04 3.99e-02  2.67e-02     4s
  21   3.46859220e+05  3.42863272e+05  9.64e-05 2.93e-02  2.16e-02     5s
  22   3.46112268e+05  3.43019147e+05  7.00e-05 2.56e-02  1.67e-02     5s
  23   3.45841844e+05  3.43164458e+05  6.04e-05 2.21e-02  1.45e-02     5s
  24   3.45347241e+05  3.43290643e+05  4.21e-05 1.89e-02  1.11e-02     5s
  25   3.45214187e+05  3.43354715e+05  3.74e-05 1.74e-02  1.01e-02     5s
  26   3.45027008e+05  3.43504049e+05  3.08e-05 1.42e-02  8.23e-03     5s
  27   3.44856504e+05  3.43549226e+05  2.47e-05 1.31e-02  7.07e-03     5s
  28   3.44839226e+05  3.43600671e+05  2.41e-05 1.20e-02  6.70e-03     5s
  29   3.44765102e+05  3.43697402e+05  2.14e-05 9.75e-03  5.77e-03     5s
  30   3.44691893e+05  3.43749426e+05  1.89e-05 8.54e-03  5.09e-03     5s
  31   3.44558505e+05  3.43861046e+05  1.41e-05 6.01e-03  3.77e-03     6s
  32   3.44522205e+05  3.43884929e+05  1.29e-05 5.47e-03  3.44e-03     6s
  33   3.44469433e+05  3.43910252e+05  1.11e-05 4.89e-03  3.02e-03     6s
  34   3.44384153e+05  3.44006751e+05  8.22e-06 2.66e-03  2.04e-03     6s
  35   3.44322581e+05  3.44051581e+05  6.13e-06 1.74e-03  1.46e-03     6s
  36   3.44256483e+05  3.44091051e+05  3.99e-06 8.70e-04  8.91e-04     6s
  37   3.44185539e+05  3.44116922e+05  1.62e-06 3.29e-04  3.69e-04     6s
  38   3.44165926e+05  3.44120368e+05  9.98e-07 2.72e-04  2.45e-04     6s
  39   3.44139418e+05  3.44132409e+05  1.39e-07 3.02e-05  3.77e-05     6s
  40   3.44134574e+05  3.44134488e+05  1.91e-09 2.76e-06  4.60e-07     6s
  41   3.44134500e+05  3.44134500e+05  3.64e-12 2.32e-08  3.14e-12     6s

Barrier solved model in 41 iterations and 6.39 seconds
Optimal objective 3.44134500e+05


Root crossover log...

   30615 DPushes remaining with DInf 0.0000000e+00                 6s
       0 DPushes remaining with DInf 0.0000000e+00                 7s

     264 PPushes remaining with PInf 0.0000000e+00                 7s
       0 PPushes remaining with PInf 0.0000000e+00                 7s

  Push phase complete: Pinf 0.0000000e+00, Dinf 0.0000000e+00      7s


Root simplex log...

Iteration    Objective       Primal Inf.    Dual Inf.      Time
    4038    3.4413450e+05   0.000000e+00   0.000000e+00      7s
    4038    3.4413450e+05   0.000000e+00   0.000000e+00      7s

Solved with barrier

Root relaxation: objective 3.441345e+05, 4038 iterations, 5.01 seconds

    Nodes    |    Current Node    |     Objective Bounds      |     Work
 Expl Unexpl |  Obj  Depth IntInf | Incumbent    BestBd   Gap | It/Node Time

     0     0 344134.500    0 2104 405679.000 344134.500  15.2%     -    7s
H    0     0                    344849.00000 344134.500  0.21%     -    8s
H    0     0                    344848.00000 344134.500  0.21%     -    8s
H    0     0                    344832.00000 344134.500  0.20%     -    8s
     0     0 344141.429    0 2132 344832.000 344141.429  0.20%     -   12s
H    0     0                    344496.00000 344141.429  0.10%     -   12s
H    0     0                    344462.00000 344141.429  0.09%     -   13s
H    0     0                    344203.00000 344141.429  0.02%     -   13s
     0     0 344141.714    0 2142 344203.000 344141.714  0.02%     -   14s
     0     0 344150.976    0 2179 344203.000 344150.976  0.02%     -   16s
     0     0 344150.976    0 1792 344203.000 344150.976  0.02%     -   17s
     0     0 344154.857    0 1863 344203.000 344154.857  0.01%     -   18s
     0     0 344154.857    0 1862 344203.000 344154.857  0.01%     -   18s
     0     0 344200.548    0 1866 344203.000 344200.548  0.00%     -   18s

Cutting planes:
  Gomory: 5
  MIR: 1
  Zero half: 162

Explored 1 nodes (7772 simplex iterations) in 18.82 seconds
Thread count was 16 (of 16 available processors)

Solution count 8: 344203 344203 344462 ... 405679

Optimal solution found (tolerance 1.00e-04)
Best objective 3.442030000000e+05, best bound 3.442010000000e+05, gap 0.0006%

User-callback calls 3020, time in user-callback 0.05 sec
['/opt/local/stow/gurobi910/linux64/lib/libgurobi91.so']
Optimal Result: runtime=18.81sec; objective=344203
Solution written to /autofs/unityaccount/cremi/mdeboute/Bureau/multi-period-flp/solution/instMulti_I30_J250_T8_0_result.txt
